instance5
50
1
0.44
0.97
0.68
0.59
0.25
0.34
0.49
0.32
0.49
0.09
0.83
0.1
0.65
0.15
0.91
0.36
0.07
0.91
0.5
0.6
0.39
0.56
0.09
0.18
0.5
0.34
0.12
0.6
0.77
0.34
0.42
0.26
0.71
0.67
0.98
0.36
0.12
0.18
0.23
0.95
0.51
0.11
0.46
0.17
0.89
0.81
0.25
0.94
0.17




































